flow=[(1,6,2)(5,0,0)(5,1,0)(5,2,0)(5,4,0)(5,6,5)(5,7,0)(5,8,0)(5,9,0)(5,10,0)(5,11,0)(5,12,0)(5,13,0)(6,1,3)(6,5,3)(6,7,7)(6,10,2)(6,11,8)(10,6,6)(11,6,7)(11,9,2)(11,10,0)(11,12,7)(12,5,6)(12,6,0)(12,7,0)(12,10,0)];
